17587 16552 16099 15750 15335 15036 14490 14490 14215 14096 13802 13480 13287 12656 12458 12321 12178 11971 11767 11392 11301 11051 10833 10736 10594 10477 10326 10093 10003 9881 9671 9671 9483 9461 9358 9286 9173 9121 9048 8983 8894 8815 8721 8605 8543 8461 8414 8347 8308 8214 8173 8116 8104 8028 7996 7972 7916 7827 7795 7752 7698 7627 7571 7544 7494 7439 7412 7381 7333 7303 7258 7221 7203 7184 7151 7122 7087 7061 7035 6999 6950 6915 6887 6838 6769 6731 6678 6619 6610 6602 6557 6553 6543 6532 6513 6502 6490 6474 6461 6457 6429 6384 6384 6338 6279 6270 6256 6231 6216 6197 6176 6156 6141 6130 6094 6080 6070 6064 6050 6043 6039 6022 6017 6000 5987 5980 5967 5959 5949 5938 5928 5915 5898 5883 5846 5812 5801 5778 5720 5704 5692 5675 5666 5654 5639 5601 5592 5551 5538 5513 5505 5494 5468 5462 5446 5423 5407 5399 5381 5344 5308 5301 5294 5275 5266 5253 5241 5228 5214 5196 5192 5175 5175 5175 5171 5159 5157 5147 5138 5130 5128 5123 5111 5111 5103 5088 5088 5083 5079 5065 5065 5065 5042 5042 5042 5037 5014 5010 5005 5001 4991 4987 4977 4969 4957 4949 4940 4936 4920 4912 4906 4894 4889 4883 4865 4863 4851 4833 4822 4807 4806 4789 4784 4766 4762 4758 4743 4743 4737 4737 4735 4728 4726 4720 4669 4669 4659 4658 4658 4650 4650 4650 4612 4610 4607 4594 4594 4589 4583 4579 4574 4574 4569 4565 4558 4558 4547 4544 4543 4537 4530 4524 4508 4502 4502 4496 4490 4490 4478 4477 4470 4463 4457 4452 4445 4438 4438 4436 4436 4436 4434 4432 4431 4429 4427 4422 4422 4422 4421 4418 4412 4412 4411 4336 4336 4330 4318 4318 4313 4292 4292 4289 4273 4273 4257 4216 4208 4207 4190 4189 4180 4179 4178 4171 4166 4164 4157 4144 4133 4126 4121 4110 4099 4099 4088 4088 4064 4053 4053 4044 4031 4017 4017 4003 4003 3994 3994 3991 3988 3985 3985 3980 3980 3978 3974 3972 3970 3964 3963 3960 3959 3943 3943 3943 3943 3943 3943 3943 3943 3938 3938 3938 3937 3937 3937 3932 3931 3928 3926 3922 3922 3922 3916 3916 3913 3908 3904 3904 3904 3904 3904 3904 3904 3904 3904 3901 3901 3901 3901 3893 3893 3893 3888 3888 3888 3888 3888 3888 3888 3878 3878 3878 3878 3862 3862 3856 3856 3856 3855 3855 3844 3844 3841 3841 3833 3833 3824 3820 3820 3818 3792 3792 3782 3782 3776 3771 3771 3771 3762 3762 3759 3737 3737 3737 3734 3731 3728 3727 3724 3723 3717 3713 3710 3703 3679 3670 3659 3650 3650 3647 3647 3645 3644 3642 3640 3639 3636 3636 3636 3633 3633 3633 3627 3627 3627 3607 3607 3607 3607 3602 3602 3602 3599 3596 3596 3592 3590 3586 3581 3577 3577 3570 3570 3570 3570 3570 3568 3568 3568 3568 3568 3568 3568 3566 3562 3562 3561 3560 3560 3558 3557 3550 3550 3544 3540 3540 3530 3530 3524 3524 3523 3521 3521 3521 3515 3515 3515 3513 3511 3511 3511 3509 3509 3503 3501 3495 3493 3493 3485 3485 3479 3479 3475 3475 3475 3475 3475 3472 3472 3472 3472 3471 3471 3471 3458 3458 3458 3446 3446 3445 3442 3441 3440 3437 3419 3419 3413 3413 3413 3412 3409 3409 3407 3397 3397 3397 3391 3391 3387 3387 3384 3383 3381 3380 3380 3380 3378 3376 3376 3374 3366 3364 3364 3364 3364 3364 3358 3358 3358 3358 3358 3358 3358 3358 3358 3358 3358 3358 3358 3358 3358 3358 3358 3358 3358 3358 3358 3358 3358 3358 3358 3356 3356 3356 3356 3355 3350 3350 3350 3349 3349 3334 3334 3334 3334 3334 3334 3334 3334 3334 3334 3328 3328 3328 3328 3328 3328 3328 3328 3328 3328 3328 3328 3328 3328 3328 3325 3325 3325 3325 3325 3318 3318 3318 3318 3318 3318 3318 3318 3318 3318 3314 3314 3314 3314 3314 3308 3308 3308 3308 3308 3308 3308 3308 3306 3306 3306 3306 3306 3306 3306 3306 3306 3306 3306 3306 3306 3306 3306 3306 3306 3306 3306 3306 3306 3306 3306 3306 3306 3306 3306 3306 3306 3306 3306 3306 3306 3306 3306 3306 3306 3306 3306 3306 3306 3306 3306 3306 3306 3306 3306 3306 3306 3306 3306 3306 3306 3306 3306 3306 3306 3306 3306 3306 3306 3306 3306 3306 3306 3306 3306 3306 3306 3306 3306 3306 3306 3306 3306 3306 3306 3306 3306 3306 3306 3306 3306 3306 3306 3306 3306 3306 3306 3306 3306 3306 3306 3306 3306 3306 3306 3306 3306 3306 3306 3306 3306 3306 3306 3306 3306 3306 3306 3306 3306 3306 3306 3306 3306 3306 3306 3306 3306 3306 3306 3306 3306 3306 3306 3306 3306 3306 3306 3306 3306 3306 3306 3306 3306 3306 3306 3306 3306 3306 3306 3306 3306 3306 3306 3306 3306 3306 3306 3306 3306 3306 3306 3306 3306 3306 3306 3306 3306 3306 3306 3306 3306 3306 3306 3306 3306 3306 3306 3306 3306 3306 3306 3306 3306 3306 3306 3306 3306 3306 3306 3306 3306 3306 3306 3306 3306 3306 3306 3306 3306 3306 3306 3306 3306 3306 3306 3306 3306 3306 3306 3306 3306 3306 3306 3306 3306 3306 3306 3306 3306 3306 3306 3306 3306 3306 3306 3306 3306 3306 3306 3306 3306 3306 3306 3306 3306 3306 3306 3306 3306 3306 3306 3306 3306 3306 3306 3306 3306 3306 3306 3306 3306 3306 3306 3306 3306 3306 3306 3306 3306 3306 3306 3306 3306 3306 3306 3306 3306 3306 3306 3306 3306 3306 3306 3306 3306 3306 3306 3306 3306 3306 3306 3306 3306 3306 3306 3306 3306 3306 3306 3306 3306 3306 3306 3306 3306 3306 3306 3306 3306 3306 3306 3306 3306 3306 3306 3306 3306 3306 3306 3306 3306 3306 3306 3306 3306 3306 3306 3306 3306 3306 3306 3306 3306 3306 3306 3306 3306 3306 3306 3306 3306 3306 3306 3306 3306 3306 3306 3306 3306 3306 3306 3306 3306 3306 3306 3306 3306 3306 3306 3306 3306 3306 3306 3306 3306 3306 3306 3306 3306 3306 3306 3306 3306 3306 3306 3306 3306 3306 3306 3306 3306 3306 3306 3306 3306 3306 3306 3306 3306 3306 3306 3306 3306 3306 3306 3306 3306 3306 3306 3306 3306 3306 3306 3306 3306 3306 3306 3306 3306 3306 3306 3306 3306 3306 3306 3306 3306 3306 3306 3306 3306 3306 3306 3306 3306 3306 3306 3306 3306 3306 3306 3306 3306 3306 3306 3306 3306 3306 3306 3306 3306 3306 3306 3306 3306 3306 3306 3306 3306 3306 3306 3306 3306 3306 3306 3306 3306 3306 3306 3306 3306 3306 3306 3306 3306 3306 3306 3306 3306 3306 3306 3306 3306 3306 3306 3306 3306 3306 3306 3306 3306 3306 3306 3306 3306 3306 3306 3306 3306 3306 3306 3306 3306 3306 3306 3306 3306 3306 3306 3306 3306 3306 3306 3306 3306 3306 3306 3306 3306 3306 3306 3306 3306 3306 3306 3306 3306 3306 3306 3306 3306 3306 3306 3306 3306 3306 3306 3306 3306 3306 3306 3306 3306 3306 3306 3306 3306 3306 3306 3306 3306 3306 3306 3306 3306 3306 3306 3306 3306 3306 3306 3306 3306 3306 3306 3306 3306 3306 3306 3306 3306 3306 3306 3306 3306 3306 3306 3306 3306 3306 3306 3306 3306 3306 3306 3306 3306 3306 3306 3306 3306 3306 3306 3306 3306 3306 3306 3306 3306 3306 3306 3306 3306 3306 3306 3306 3306 3306 3306 3306 3306 3306 3306 3306 3306 3306 3306 3306 3306 3306 3306 3306 3306 3306 3306 3306 3306 3306 3306 3306 3306 3306 3306 3306 3306 3306 3306 3306 3306 3306 3306 3306 3306 3306 3306 3306 3306 3306 3306 3306 3306 3306 3306 3306 3306 3306 3306 3306 3306 3306 3306 3306 3306 3306 3306 3306 3306 3306 3306 3306 3306 3306 3306 3306 3306 3306 3306 3306 3306 3306 3306 3306 3306 3306 3306 3306 3306 3306 3306 3306 3306 3306 3306 3306 3306 3306 3306 3306 3306 3306 3306 3306 3306 3306 3306 3306 3306 3306 3306 3306 3306 3306 3306 3306 3306 3306 3306 3306 3306 3306 3306 3306 3306 3306 3306 3306 3306 3306 3306 3306 3306 3306 3306 3306 3306 3306 3306 3306 3306 3306 3306 3306 3306 3306 3306 3306 3306 3306 3306 3306 3306 3306 3306 3306 3306 3306 3306 3306 3306 3306 3306 3306 3306 3306 3306 3306 3306 3306 3306 3306 3306 3306 3306 3306 3306 3306 3306 3306 3306 3306 3306 3306 3306 3306 3306 3306 3306 3306 3306 3306 3306 3306 3306 3306 3306 3306 3306 3306 3306 3306 3306 3306 3306 3306 3306 3306 3306 3306 3306 3306 3306 3306 3306 3306 3306 3306 3306 3306 3306 3306 3306 3306 3306 3306 3306 3306 3306 3306 3306 3306 3306 3306 3306 3306 3306 3306 3306 3306 3306 3306 3306 3306 3306 3306 3306 3306 3306 3306 3306 3306 3306 3306 3306 3306 
19084 18207 17548 16964 16465 16102 15803 15473 15175 14822 14428 14125 13798 13497 13258 13000 12700 12434 12204 11970 11750 11528 11309 11090 10938 10784 10646 10499 10363 10226 10096 9977 9848 9677 9560 9461 9359 9258 9186 9114 9042 8966 8892 8823 8738 8650 8561 8485 8419 8352 8298 8243 8191 8147 8103 8064 8019 7970 7916 7857 7798 7740 7687 7632 7578 7527 7482 7451 7416 7377 7335 7303 7269 7230 7202 7173 7146 7123 7099 7072 7036 7001 6960 6919 6881 6829 6766 6716 6674 6638 6617 6604 6592 6571 6549 6537 6524 6509 6498 6485 6471 6456 6439 6420 6392 6367 6325 6278 6260 6241 6224 6201 6187 6164 6145 6125 6103 6083 6069 6063 6057 6049 6040 6030 6017 6003 5992 5982 5972 5962 5951 5940 5929 5918 5906 5891 5874 5838 5805 5782 5761 5707 5685 5677 5669 5653 5633 5607 5580 5560 5537 5522 5505 5500 5489 5464 5448 5430 5403 5395 5384 5365 5318 5303 5297 5277 5264 5255 5247 5233 5214 5203 5186 5183 5181 5174 5173 5166 5160 5154 5146 5138 5132 5128 5121 5111 5106 5102 5095 5087 5082 5074 5068 5064 5061 5044 5041 5038 5035 5018 5007 5003 4996 4989 4981 4972 4961 4951 4943 4934 4920 4910 4905 4900 4889 4882 4874 4863 4848 4831 4825 4815 4805 4789 4783 4765 4761 4760 4756 4748 4741 4736 4736 4733 4729 4726 4710 4676 4665 4658 4657 4657 4655 4649 4646 4624 4608 4604 4599 4588 4584 4579 4575 4573 4568 4568 4564 4560 4555 4549 4544 4542 4535 4523 4507 4507 4501 4498 4495 4488 4477 4476 4470 4462 4458 4456 4451 4447 4439 4437 4436 4435 4434 4433 4431 4429 4428 4426 4425 4421 4421 4420 4419 4416 4411 4408 4387 4333 4329 4327 4317 4316 4310 4291 4284 4272 4260 4249 4214 4207 4203 4189 4187 4178 4178 4176 4169 4162 4154 4148 4138 4127 4115 4109 4108 4100 4097 4087 4082 4059 4052 4051 4043 4039 4024 4014 4002 4000 3993 3990 3990 3986 3983 3979 3979 3979 3977 3973 3969 3963 3963 3963 3959 3958 3954 3943 3943 3943 3943 3942 3942 3942 3937 3937 3937 3936 3936 3936 3933 3930 3925 3924 3921 3921 3921 3915 3915 3913 3907 3904 3904 3904 3904 3904 3904 3903 3903 3903 3901 3900 3900 3899 3892 3892 3892 3891 3888 3888 3888 3887 3887 3887 3878 3877 3877 3873 3861 3856 3855 3855 3855 3854 3854 3852 3843 3841 3840 3840 3832 3824 3819 3819 3812 3791 3785 3780 3775 3775 3770 3770 3769 3763 3761 3758 3751 3736 3733 3733 3728 3727 3726 3722 3718 3715 3710 3705 3702 3687 3668 3653 3649 3649 3646 3645 3644 3643 3641 3638 3636 3635 3635 3635 3634 3632 3632 3626 3626 3625 3607 3606 3606 3606 3605 3601 3601 3598 3595 3591 3587 3585 3583 3579 3576 3576 3574 3570 3569 3569 3569 3568 3568 3568 3568 3567 3567 3567 3565 3561 3561 3560 3560 3559 3558 3556 3551 3546 3543 3540 3529 3529 3529 3526 3523 3522 3520 3520 3520 3514 3514 3514 3514 3512 3510 3510 3508 3507 3502 3500 3494 3494 3492 3486 3483 3478 3475 3475 3475 3474 3474 3474 3472 3471 3471 3471 3470 3470 3470 3461 3457 3446 3445 3445 3444 3441 3439 3438 3434 3424 3414 3412 3412 3412 3412 3408 3408 3405 3396 3396 3395 3390 3390 3388 3385 3383 3380 3380 3379 3379 3379 3377 3376 3373 3372 3365 3364 3364 3363 3363 3363 3358 3358 3358 3358 3358 3358 3358 3358 3358 3358 3358 3358 3358 3358 3358 3358 3358 3358 3358 3358 3358 3358 3357 3357 3357 3356 3355 3355 3355 3354 3351 3349 3349 3348 3348 3342 3334 3334 3334 3334 3334 3334 3333 3333 3333 3328 3328 3328 3328 3328 3328 3328 3328 3328 3328 3328 3328 3327 3327 3327 3327 3325 3324 3324 3324 3319 3318 3318 3318 3318 3318 3318 3317 3317 3317 3315 3314 3313 3313 3313 3308 3308 3308 3308 3308 3307 3307 3307 3306 3306 3306 3306 3306 3306 3306 3306 3306 3306 3306 3306 3306 3306 3306 3306 3306 3306 3306 3306 3306 3306 3306 3306 3306 3306 3306 3306 3306 3306 3306 3306 3306 3306 3306 3306 3306 3306 3306 3306 3306 3306 3306 3306 3306 3306 3306 3306 3306 3306 3306 3306 3306 3306 3306 3306 3306 3306 3306 3306 3306 3306 3306 3306 3306 3306 3306 3306 3306 3306 3306 3306 3306 3306 3306 3306 3306 3306 3306 3306 3306 3306 3306 3306 3306 3306 3306 3306 3306 3306 3306 3306 3306 3306 3306 3306 3306 3306 3306 3306 3306 3306 3306 3306 3306 3306 3306 3306 3306 3306 3306 3306 3306 3306 3306 3306 3306 3306 3306 3306 3306 3306 3306 3306 3306 3306 3306 3306 3306 3306 3306 3306 3306 3306 3306 3306 3306 3306 3306 3306 3306 3306 3306 3306 3306 3306 3306 3306 3306 3306 3306 3306 3306 3306 3306 3306 3306 3306 3306 3306 3306 3306 3306 3306 3306 3306 3306 3306 3306 3306 3306 3306 3306 3306 3306 3306 3306 3306 3306 3306 3306 3306 3306 3306 3306 3306 3306 3306 3306 3306 3306 3306 3306 3306 3306 3306 3306 3306 3306 3306 3306 3306 3306 3306 3306 3306 3306 3306 3306 3306 3306 3306 3306 3306 3306 3306 3306 3306 3306 3306 3306 3306 3306 3306 3306 3306 3306 3306 3306 3306 3306 3306 3306 3306 3306 3306 3306 3306 3306 3306 3306 3306 3306 3306 3306 3306 3306 3306 3306 3306 3306 3306 3306 3306 3306 3306 3306 3306 3306 3306 3306 3306 3306 3306 3306 3306 3306 3306 3306 3306 3306 3306 3306 3306 3306 3306 3306 3306 3306 3306 3306 3306 3306 3306 3306 3306 3306 3306 3306 3306 3306 3306 3306 3306 3306 3306 3306 3306 3306 3306 3306 3306 3306 3306 3306 3306 3306 3306 3306 3306 3306 3306 3306 3306 3306 3306 3306 3306 3306 3306 3306 3306 3306 3306 3306 3306 3306 3306 3306 3306 3306 3306 3306 3306 3306 3306 3306 3306 3306 3306 3306 3306 3306 3306 3306 3306 3306 3306 3306 3306 3306 3306 3306 3306 3306 3306 3306 3306 3306 3306 3306 3306 3306 3306 3306 3306 3306 3306 3306 3306 3306 3306 3306 3306 3306 3306 3306 3306 3306 3306 3306 3306 3306 3306 3306 3306 3306 3306 3306 3306 3306 3306 3306 3306 3306 3306 3306 3306 3306 3306 3306 3306 3306 3306 3306 3306 3306 3306 3306 3306 3306 3306 3306 3306 3306 3306 3306 3306 3306 3306 3306 3306 3306 3306 3306 3306 3306 3306 3306 3306 3306 3306 3306 3306 3306 3306 3306 3306 3306 3306 3306 3306 3306 3306 3306 3306 3306 3306 3306 3306 3306 3306 3306 3306 3306 3306 3306 3306 3306 3306 3306 3306 3306 3306 3306 3306 3306 3306 3306 3306 3306 3306 3306 3306 3306 3306 3306 3306 3306 3306 3306 3306 3306 3306 3306 3306 3306 3306 3306 3306 3306 3306 3306 3306 3306 3306 3306 3306 3306 3306 3306 3306 3306 3306 3306 3306 3306 3306 3306 3306 3306 3306 3306 3306 3306 3306 3306 3306 3306 3306 3306 3306 3306 3306 3306 3306 3306 3306 3306 3306 3306 3306 3306 3306 3306 3306 3306 3306 3306 3306 3306 3306 3306 3306 3306 3306 3306 3306 3306 3306 3306 3306 3306 3306 3306 3306 3306 3306 3306 3306 3306 3306 3306 3306 3306 3306 3306 3306 3306 3306 3306 3306 3306 3306 3306 3306 3306 3306 3306 3306 3306 3306 3306 3306 3306 3306 3306 3306 3306 3306 3306 3306 3306 3306 3306 3306 3306 3306 3306 3306 3306 3306 3306 3306 3306 3306 3306 3306 3306 3306 3306 3306 3306 3306 3306 3306 3306 3306 3306 3306 3306 3306 3306 3306 3306 3306 3306 3306 3306 3306 3306 3306 3306 3306 3306 3306 3306 3306 3306 3306 3306 3306 3306 3306 3306 3306 3306 3306 3306 3306 3306 3306 3306 3306 3306 3306 3306 3306 3306 3306 3306 3306 3306 3306 3306 3306 3306 3306 3306 3306 3306 3306 3306 3306 3306 3306 3306 3306 3306 3306 3306 3306 3306 3306 3306 3306 3306 3306 3306 3306 3306 3306 3306 3306 3306 3306 3306 3306 3306 3306 3306 3306 3306 3306 3306 3306 3306 3306 3306 3306 3306 3306 3306 3306 3306 3306 3306 3306 3306 3306 3306 3306 3306 3306 3306 3306 3306 3306 3306 3306 3306 3306 3306 3306 3306 3306 3306 3306 3306 3306 3306 3306 3306 3306 3306 3306 3306 3306 3306 3306 3306 3306 3306 3306 3306 3306 3306 3306 3306 3306 3306 3306 3306 3306 3306 3306 3306 3306 3306 3306 3306 3306 3306 3306 3306 3306 3306 3306 3306 3306 3306 3306 3306 3306 3306 3306 3306 3306 3306 3306 3306 3306 3306 3306 3306 3306 3306 3306 3306 3306 3306 3306 3306 3306 3306 3306 3306 3306 3306 3306 3306 3306 3306 3306 3306 3306 3306 3306 3306 3306 3306 3306 3306 